# Objective value = 3.0840230800231262e+02
x[0] 0
x[1] 1
x[2] 0
x[3] 1
x[4] 1
x[5] 0
x[6] 0
x[7] 0
x[8] 1
x[9] 0
x[10] 0
x[11] 0
x[12] 1
x[13] 1
x[14] 1
x[15] 0
x[16] 1
x[17] 1
x[18] 1
x[19] 1
x[20] 1
x[21] 1
x[22] 0
x[23] 1
x[24] 0
x[25] 0
x[26] 0
x[27] 0
x[28] 1
x[29] 1
x[30] 1
x[31] 1
x[32] 0
x[33] 0
x[34] 0
x[35] 0
x[36] 0
x[37] 0
x[38] 1
x[39] 1
x[40] 0
x[41] 1
x[42] 0
x[43] 1
x[44] 0
x[45] 1
x[46] 1
x[47] 0
x[48] 1
x[49] 1
x[50] 1
x[51] 0
x[52] 0
x[53] 0
x[54] 0
x[55] 0
x[56] 1
x[57] 0
x[58] 1
x[59] 1
x[60] 1
x[61] 0
x[62] 1
x[63] 1
x[64] 1
x[65] 1
x[66] 1
x[67] 0
x[68] 1
x[69] 1
x[70] 1
x[71] 1
x[72] 1
x[73] 0
x[74] 0
x[75] 0
x[76] 0
x[77] 1
x[78] 1
x[79] 1
x[80] 0
x[81] 1
x[82] 1
x[83] 0
x[84] 0
x[85] 0
x[86] 0
x[87] 1
x[88] 1
x[89] 1
x[90] 0
x[91] 0
x[92] 0
x[93] 0
x[94] 1
x[95] 1
x[96] 0
x[97] 0
x[98] 0
x[99] 1
x[100] 1
x[101] 1
x[102] 1
x[103] 0
x[104] 0
x[105] 0
x[106] 1
x[107] 0
x[108] 1
x[109] 1
x[110] 1
x[111] 1
x[112] 1
x[113] 1
x[114] 0
x[115] 1
x[116] 0
x[117] 1
x[118] 0
x[119] 0
x[120] 1
x[121] 0
x[122] 1
x[123] 1
x[124] 1
x[125] 1
x[126] 1
x[127] 1
x[128] 0
x[129] 0
x[130] 0
x[131] 0
x[132] 0
x[133] 0
x[134] 1
x[135] 0
x[136] 1
x[137] 1
x[138] 0
x[139] 0
x[140] 1
x[141] 0
x[142] 0
x[143] 1
x[144] 1
x[145] 1
x[146] 0
x[147] 0
x[148] 1
x[149] 0
x[150] 0
x[151] 0
x[152] 0
x[153] 1
x[154] 0
x[155] 0
x[156] 0
x[157] 1
x[158] 0
x[159] 0
x[160] 1
x[161] 0
x[162] 0
x[163] 0
x[164] 1
x[165] 0
x[166] 0
x[167] 0
x[168] 1
x[169] 0
x[170] 1
x[171] 0
x[172] 1
x[173] 0
x[174] 1
x[175] 1
x[176] 0
x[177] 0
x[178] 1
x[179] 1
x[180] 0
x[181] 0
x[182] 0
x[183] 1
x[184] 1
x[185] 0
x[186] 1
x[187] 1
x[188] 1
x[189] 0
x[190] 1
x[191] 1
x[192] 1
x[193] 1
x[194] 0
x[195] 1
x[196] 0
x[197] 1
x[198] 0
x[199] 0
x[200] 1
x[201] 0
x[202] 0
x[203] 1
x[204] 1
x[205] 1
x[206] 0
x[207] 0
x[208] 0
x[209] 1
x[210] 1
x[211] 0
x[212] 0
x[213] 0
x[214] 1
x[215] 1
x[216] 0
x[217] 0
x[218] 0
x[219] 0
x[220] 0
x[221] 0
x[222] 1
x[223] 0
x[224] 0
x[225] 1
x[226] 0
x[227] 1
x[228] 1
x[229] 1
x[230] 0
x[231] 1
x[232] 0
x[233] 1
x[234] 0
x[235] 1
x[236] 0
x[237] 0
x[238] 1
x[239] 1
x[240] 0
x[241] 0
x[242] 1
x[243] 0
x[244] 1
x[245] 1
x[246] 0
x[247] 1
x[248] 0
x[249] 0
x[250] 0
x[251] 0
x[252] 1
x[253] 1
x[254] 1
x[255] 1
x[256] 0
x[257] 1
x[258] 0
x[259] 1
x[260] 0
x[261] 1
x[262] 0
x[263] 1
x[264] 0
x[265] 0
x[266] 1
x[267] 0
x[268] 1
x[269] 0
x[270] 0
x[271] 0
x[272] 0
x[273] 0
x[274] 0
x[275] 1
x[276] 0
x[277] 1
x[278] 0
x[279] 0
x[280] 1
x[281] 1
x[282] 1
x[283] 0
x[284] 1
x[285] 0
x[286] 0
x[287] 1
x[288] 1
x[289] 1
x[290] 1
x[291] 0
x[292] 0
x[293] 1
x[294] 1
x[295] 1
x[296] 1
x[297] 1
x[298] 0
x[299] 0
x[300] 1
x[301] 1
x[302] 1
x[303] 1
x[304] 0
x[305] 1
x[306] 0
x[307] 0
x[308] 1
x[309] 0
x[310] 0
x[311] 0
x[312] 1
x[313] 0
x[314] 0
x[315] 1
x[316] 1
x[317] 1
x[318] 1
x[319] 0
x[320] 0
x[321] 0
x[322] 0
x[323] 1
x[324] 1
x[325] 1
x[326] 0
x[327] 0
x[328] 0
x[329] 0
x[330] 0
x[331] 1
x[332] 1
x[333] 1
x[334] 1
x[335] 1
x[336] 0
x[337] 1
x[338] 0
x[339] 0
x[340] 0
x[341] 1
x[342] 0
x[343] 0
x[344] 0
x[345] 1
x[346] 0
x[347] 1
x[348] 0
x[349] 1
x[350] 0
x[351] 1
x[352] 1
x[353] 1
x[354] 0
x[355] 0
x[356] 0
x[357] 0
x[358] 0
x[359] 0
x[360] 0
x[361] 1
x[362] 0
x[363] 1
x[364] 1
x[365] 0
x[366] 0
x[367] 0
x[368] 0
x[369] 1
x[370] 1
x[371] 1
x[372] 0
x[373] 1
x[374] 0
x[375] 1
x[376] 0
x[377] 0
x[378] 1
x[379] 1
x[380] 0
x[381] 1
x[382] 0
x[383] 1
x[384] 1
x[385] 0
x[386] 0
x[387] 0
x[388] 0
x[389] 1
x[390] 1
x[391] 0
x[392] 0
x[393] 1
x[394] 0
x[395] 0
x[396] 1
x[397] 1
x[398] 1
x[399] 0
x[400] 1
x[401] 1
x[402] 1
x[403] 0
x[404] 1
x[405] 1
x[406] 1
x[407] 1
x[408] 1
x[409] 1
x[410] 1
x[411] 1
x[412] 1
x[413] 1
x[414] 0
x[415] 1
x[416] 0
x[417] 1
x[418] 1
x[419] 1
x[420] 1
x[421] 0
x[422] 0
x[423] 1
x[424] 0
x[425] 1
x[426] 0
x[427] 0
x[428] 0
x[429] 0
x[430] 1
x[431] 1
x[432] 1
x[433] 0
x[434] 0
x[435] 1
x[436] 0
x[437] 0
x[438] 1
x[439] 0
x[440] 1
x[441] 1
x[442] 1
x[443] 0
x[444] 1
x[445] 0
x[446] 1
x[447] 0
x[448] 0
x[449] 0
x[450] 0
x[451] 1
x[452] 1
x[453] 1
x[454] 0
x[455] 0
x[456] 1
x[457] 0
x[458] 1
x[459] 1
x[460] 0
x[461] 0
x[462] 1
x[463] 0
x[464] 0
x[465] 0
x[466] 1
x[467] 0
x[468] 0
x[469] 0
x[470] 1
x[471] 1
x[472] 0
x[473] 0
x[474] 1
x[475] 1
x[476] 0
x[477] 1
x[478] 0
x[479] 0
x[480] 1
x[481] 1
x[482] 0
x[483] 1
x[484] 1
x[485] 1
x[486] 1
x[487] 0
x[488] 1
x[489] 1
x[490] 0
x[491] 1
x[492] 1
x[493] 0
x[494] 1
x[495] 1
x[496] 1
x[497] 0
x[498] 1
x[499] 0
x[500] 0
x[501] 0
x[502] 0
x[503] 0
x[504] 0
x[505] 1
x[506] 0
x[507] 1
x[508] 0
x[509] 1
x[510] 0
x[511] 0
x[512] 1
x[513] 1
x[514] 1
x[515] 0
x[516] 1
x[517] 0
x[518] 1
x[519] 0
x[520] 0
x[521] 0
x[522] 1
x[523] 1
x[524] 1
x[525] 0
x[526] 1
x[527] 1
x[528] 0
x[529] 0
x[530] 0
x[531] 0
x[532] 0
x[533] 0
x[534] 1
x[535] 0
x[536] 0
x[537] 0
x[538] 0
x[539] 0
x[540] 1
x[541] 1
x[542] 0
x[543] 1
x[544] 1
x[545] 0
x[546] 0
x[547] 1
x[548] 0
x[549] 1
x[550] 0
x[551] 1
x[552] 1
x[553] 1
x[554] 0
x[555] 0
x[556] 1
x[557] 1
x[558] 1
x[559] 0
x[560] 0
x[561] 0
x[562] 0
x[563] 0
x[564] 0
x[565] 0
x[566] 0
x[567] 1
x[568] 1
x[569] 1
x[570] 0
x[571] 1
x[572] 1
x[573] 0
x[574] 0
x[575] 1
x[576] 0
x[577] 0
x[578] 0
x[579] 1
x[580] 0
x[581] 0
x[582] 0
x[583] 1
x[584] 0
x[585] 0
x[586] 1
x[587] 0
x[588] 0
x[589] 0
x[590] 0
x[591] 0
x[592] 1
x[593] 0
x[594] 1
x[595] 1
x[596] 1
x[597] 1
x[598] 1
x[599] 1
x[600] 1
x[601] 0
x[602] 1
x[603] 0
x[604] 0
x[605] 1
x[606] 0
x[607] 0
x[608] 1
x[609] 0
x[610] 1
x[611] 1
x[612] 1
x[613] 1
x[614] 0
x[615] 1
x[616] 0
x[617] 1
x[618] 1
x[619] 0
x[620] 0
x[621] 1
x[622] 1
x[623] 0
x[624] 0
x[625] 1
x[626] 1
x[627] 0
x[628] 0
x[629] 1
x[630] 1
x[631] 1
x[632] 0
x[633] 0
x[634] 0
x[635] 0
x[636] 1
x[637] 1
x[638] 1
x[639] 1
x[640] 1
x[641] 0
x[642] 1
x[643] 1
x[644] 0
x[645] 1
x[646] 1
x[647] 0
x[648] 0
x[649] 0
x[650] 1
x[651] 1
x[652] 0
x[653] 1
x[654] 1
x[655] 1
x[656] 1
x[657] 0
x[658] 1
x[659] 0
x[660] 0
x[661] 1
x[662] 1
x[663] 0
x[664] 0
x[665] 1
x[666] 0
x[667] 1
x[668] 0
x[669] 0
x[670] 0
x[671] 1
x[672] 0
x[673] 0
x[674] 1
x[675] 0
x[676] 0
x[677] 1
x[678] 0
x[679] 0
x[680] 1
x[681] 1
x[682] 1
x[683] 1
x[684] 1
x[685] 0
x[686] 0
x[687] 1
x[688] 0
x[689] 0
x[690] 1
x[691] 0
x[692] 1
x[693] 1
x[694] 1
x[695] 1
x[696] 1
x[697] 0
x[698] 1
x[699] 0
x[700] 0
x[701] 1
x[702] 1
x[703] 0
x[704] 1
x[705] 0
x[706] 1
x[707] 0
x[708] 1
x[709] 0
x[710] 1
x[711] 1
x[712] 1
x[713] 0
x[714] 1
x[715] 1
x[716] 0
x[717] 1
x[718] 1
x[719] 0
x[720] 1
x[721] 1
x[722] 0
x[723] 1
x[724] 0
x[725] 1
x[726] 0
x[727] 0
x[728] 1
x[729] 1
x[730] 1
x[731] 1
x[732] 1
x[733] 0
x[734] 1
x[735] 1
x[736] 0
x[737] 0
x[738] 0
x[739] 0
x[740] 1
x[741] 1
x[742] 0
x[743] 0
x[744] 1
x[745] 1
x[746] 1
x[747] 0
x[748] 0
x[749] 0
x[750] 0
x[751] 0
x[752] 0
x[753] 0
x[754] 1
x[755] 0
x[756] 1
x[757] 0
x[758] 1
x[759] 0
x[760] 1
x[761] 1
x[762] 0
x[763] 0
x[764] 1
x[765] 1
x[766] 1
x[767] 0
x[768] 0
x[769] 1
x[770] 0
x[771] 1
x[772] 0
x[773] 1
x[774] 0
x[775] 0
x[776] 0
x[777] 0
x[778] 1
x[779] 0
x[780] 1
x[781] 0
x[782] 1
x[783] 0
x[784] 0
x[785] 0
x[786] 0
x[787] 0
x[788] 0
x[789] 0
x[790] 0
x[791] 1
x[792] 0
x[793] 1
x[794] 1
x[795] 1
x[796] 1
x[797] 1
x[798] 0
x[799] 1
x[800] 1
x[801] 0
x[802] 0
x[803] 1
x[804] 0
x[805] 1
x[806] 1
x[807] 1
x[808] 0
x[809] 0
x[810] 0
x[811] 0
x[812] 0
x[813] 0
x[814] 1
x[815] 0
x[816] 0
x[817] 1
x[818] 0
x[819] 1
x[820] 0
x[821] 1
x[822] 0
x[823] 1
x[824] 1
x[825] 1
x[826] 0
x[827] 0
x[828] 1
x[829] 1
x[830] 0
x[831] 0
x[832] 0
x[833] 0
x[834] 0
x[835] 0
x[836] 0
x[837] 0
x[838] 1
x[839] 0
x[840] 1
x[841] 1
x[842] 1
x[843] 1
x[844] 0
x[845] 0
x[846] 1
x[847] 1
x[848] 1
x[849] 1
x[850] 0
x[851] 1
x[852] 0
x[853] 0
x[854] 0
x[855] 1
x[856] 0
x[857] 0
x[858] 0
x[859] 1
x[860] 0
x[861] 1
x[862] 1
x[863] 1
x[864] 0
x[865] 0
x[866] 0
x[867] 1
x[868] 0
x[869] 1
x[870] 0
x[871] 0
x[872] 0
x[873] 0
x[874] 0
x[875] 1
x[876] 0
x[877] 0
x[878] 1
x[879] 0
x[880] 1
x[881] 0
x[882] 0
x[883] 0
x[884] 1
x[885] 1
x[886] 0
x[887] 0
x[888] 1
x[889] 1
x[890] 0
x[891] 1
x[892] 0
x[893] 1
x[894] 1
x[895] 0
x[896] 0
x[897] 1
x[898] 0
x[899] 1
x[900] 0
x[901] 1
x[902] 1
x[903] 1
x[904] 0
x[905] 1
x[906] 0
x[907] 0
x[908] 1
x[909] 0
x[910] 0
x[911] 1
x[912] 1
x[913] 0
x[914] 0
x[915] 0
x[916] 1
x[917] 0
x[918] 1
x[919] 1
x[920] 0
x[921] 0
x[922] 0
x[923] 0
x[924] 0
x[925] 0
x[926] 1
x[927] 0
x[928] 0
x[929] 0
x[930] 1
x[931] 0
x[932] 1
x[933] 1
x[934] 0
x[935] 0
x[936] 1
x[937] 0
x[938] 1
x[939] 1
x[940] 0
x[941] 0
x[942] 0
x[943] 0
x[944] 0
x[945] 0
x[946] 1
x[947] 1
x[948] 0
x[949] 1
x[950] 1
x[951] 0
x[952] 1
x[953] 0
x[954] 1
x[955] 1
x[956] 0
x[957] 1
x[958] 1
x[959] 0
x[960] 0
x[961] 1
x[962] 0
x[963] 1
x[964] 0
x[965] 1
x[966] 1
x[967] 1
x[968] 0
x[969] 1
x[970] 0
x[971] 0
x[972] 1
x[973] 1
x[974] 1
x[975] 1
x[976] 0
x[977] 1
x[978] 0
x[979] 1
x[980] 0
x[981] 1
x[982] 1
x[983] 1
x[984] 0
x[985] 0
x[986] 0
x[987] 0
x[988] 0
x[989] 1
x[990] 0
x[991] 0
x[992] 1
x[993] 0
x[994] 0
x[995] 1
x[996] 0
x[997] 1
x[998] 0
x[999] 1
